benchmarks/VRPTW/TSPTW/solution/n60w140.004.txt.solution
1 4 56 11 51 9 39 27 14 25 13 10 33 32 36 28 24 30 54 50 42 6 16 5 60 58 22 40 23 44 38 20 55 8 15 52 31 12 3 49 45 21 18 48 2 43 47 34 19 41 26 29 37 35 17 53 61 59 57 46 7 
488
